interval = 15;
days = 7;
demand = [15,15,15,15,15,15,15,15,15,15,15,15,15,15,15,15,15,15,12,12,12,7,4,6,3,5,5,5,5,5,5,5,8,8,8,8,8,9,9,10,15,15,15,15,15,15,15,15,15,15,15,15,19,24,22,22,22,24,24,24,24,24,24,24,23,23,20,20,20,19,15,15,15,14,13,13,13,13,13,13,13,13,13,13,13,13,14,10,9,9,9,10,10,10,10,10,10,10,10,10,10,10,10,10,10,10,10,10,10,10,10,10,10,10,9,9,9,4,4,6,7,9,9,9,9,9,9,9,12,12,12,12,12,13,13,14,21,24,24,24,24,24,24,24,24,24,24,24,28,33,31,27,27,29,29,29,29,29,29,29,28,28,25,25,25,24,20,20,20,17,16,16,13,13,13,13,13,13,13,13,13,13,15,11,9,9,9,10,10,10,10,10,10,10,10,10,10,10,10,10,10,10,10,10,10,10,10,10,10,10,8,8,8,3,3,5,3,5,5,5,5,5,5,5,8,8,8,8,8,9,9,10,15,18,18,18,18,18,18,18,18,18,18,18,22,27,25,25,25,27,27,27,27,27,27,27,26,26,23,23,23,22,18,18,18,17,16,16,13,13,13,13,13,13,13,13,13,13,15,11,10,10,10,15,15,15,15,15,15,15,15,15,15,15,15,15,15,15,15,15,15,15,15,15,15,15,13,13,13,8,8,10,7,9,9,9,9,9,5,5,8,8,8,8,8,9,9,10,15,18,18,18,18,18,18,18,18,18,18,18,22,27,25,25,25,27,27,27,27,27,27,27,26,26,23,23,23,22,18,18,18,17,16,16,13,13,13,13,13,13,13,13,13,13,14,10,9,7,7,8,8,8,8,8,8,8,8,8,8,8,8,8,8,8,8,8,8,8,8,8,8,8,7,7,7,4,4,6,3,5,5,5,5,5,5,5,8,8,8,8,8,9,9,10,15,18,18,18,18,18,18,18,18,18,18,18,22,27,25,25,25,32,32,32,32,32,32,32,31,31,28,28,28,27,23,23,23,22,21,21,18,18,18,18,18,18,18,18,18,18,19,15,14,14,14,15,10,10,10,10,10,10,10,10,10,10,10,10,10,10,10,10,10,10,10,10,10,10,9,9,9,4,4,6,8,10,10,10,10,10,9,9,12,12,12,12,12,13,13,13,15,18,18,18,18,18,18,18,18,18,18,18,22,25,23,18,18,16,16,20,20,20,20,20,20,20,17,17,17,16,15,15,15,14,14,14,11,11,11,11,11,11,11,11,11,11,14,10,9,14,14,15,15,15,15,15,15,15,15,15,15,15,15,15,15,15,15,15,15,15,15,15,15,15,12,12,12,7,4,6,8,10,10,10,10,10,10,10,13,13,13,13,13,14,14,14,16,19,19,19,19,19,19,19,19,19,19,19,23,27,25,20,20,18,18,18,18,18,18,18,17,17,14,14,14,13,12,12,12,11,11,11,8,8,8,8,8,8,8,8,8,8,11,7,10,14,14,15,15,15,15,15];
shiftTypes = 4;
minStart = [20, 36, 52, 84];
maxStart = [32, 44, 60, 92];
minLength = [28, 28, 28, 28];
maxLength = [36, 36, 36, 36];
minDuties = 4.8;
maxDuties = 5;
avgMinutes = 2280;
weightUnderCover = 1;
weightOverCover = 1;
weightDutiesPerWeek = 0;
weightShiftInstances = 15;
